\ Model qkp01
\ LP format - for model browsing. Use MPS format to capture full model detail.
Maximize
  46 x_1 + 39 x_9 + 4 x_10 + 11 x_14 + 20 x_22 + 41 x_25 + x_26 + 17 x_30
   + 41 x_37 + 29 x_42 + 22 x_47 + 7 x_69 + 47 x_75 + 25 x_76 + 21 x_77
   + 19 x_80 + 28 x_82 + 35 x_86 + 50 x_87 + 40 x_89 + 39 x_91 + 21 x_93
   + [ 18 x_1 * x_16 + 42 x_1 * x_20 + 38 x_1 * x_22 + 100 x_1 * x_34
   + 54 x_1 * x_36 + 72 x_1 * x_37 + 32 x_1 * x_41 + 90 x_1 * x_49
   + 98 x_1 * x_51 + 86 x_1 * x_54 + 74 x_1 * x_60 + 76 x_1 * x_64
   + 42 x_1 * x_71 + 2 x_1 * x_80 + 58 x_1 * x_83 + 76 x_1 * x_89
   + 32 x_1 * x_93 + 10 x_1 * x_97 + 80 x_2 * x_5 + 80 x_2 * x_11
   + 76 x_2 * x_15 + 24 x_2 * x_21 + 16 x_2 * x_23 + 26 x_2 * x_26
   + 40 x_2 * x_28 + 76 x_2 * x_43 + 32 x_2 * x_44 + 6 x_2 * x_65
   + 56 x_2 * x_67 + 18 x_2 * x_68 + 80 x_2 * x_69 + 52 x_2 * x_75
   + 12 x_2 * x_80 + 36 x_2 * x_81 + 78 x_2 * x_85 + 86 x_2 * x_87
   + 86 x_2 * x_91 + 92 x_2 * x_92 + 30 x_2 * x_94 + 2 x_3 * x_4
   + 6 x_3 * x_8 + 34 x_3 * x_9 + 60 x_3 * x_14 + 76 x_3 * x_18
   + 66 x_3 * x_19 + 100 x_3 * x_25 + 40 x_3 * x_28 + 56 x_3 * x_31
   + 10 x_3 * x_33 + 16 x_3 * x_34 + 96 x_3 * x_40 + 94 x_3 * x_41
   + 26 x_3 * x_43 + 14 x_3 * x_44 + 96 x_3 * x_45 + 90 x_3 * x_51
   + 80 x_3 * x_52 + 34 x_3 * x_53 + 80 x_3 * x_56 + 28 x_3 * x_57
   + 14 x_3 * x_58 + 64 x_3 * x_63 + 74 x_3 * x_65 + 46 x_3 * x_72
   + 28 x_3 * x_74 + 26 x_3 * x_75 + 78 x_3 * x_76 + 2 x_3 * x_80
   + 92 x_3 * x_84 + 50 x_3 * x_88 + 12 x_3 * x_94 + 12 x_4 * x_11
   + 76 x_4 * x_12 + 100 x_4 * x_15 + 36 x_4 * x_16 + 98 x_4 * x_19
   + 76 x_4 * x_23 + 18 x_4 * x_26 + 76 x_4 * x_30 + 34 x_4 * x_33
   + 70 x_4 * x_37 + 38 x_4 * x_40 + 86 x_4 * x_43 + 78 x_4 * x_44
   + 14 x_4 * x_66 + 84 x_4 * x_67 + 28 x_4 * x_74 + 82 x_4 * x_76
   + 98 x_4 * x_81 + 64 x_4 * x_87 + 36 x_4 * x_93 + 10 x_4 * x_95
   + 64 x_5 * x_7 + 28 x_5 * x_8 + 30 x_5 * x_9 + 94 x_5 * x_11
   + 40 x_5 * x_13 + 18 x_5 * x_21 + 72 x_5 * x_27 + 94 x_5 * x_33
   + 46 x_5 * x_35 + 44 x_5 * x_37 + 64 x_5 * x_44 + 60 x_5 * x_46
   + 6 x_5 * x_50 + 78 x_5 * x_52 + 18 x_5 * x_54 + 46 x_5 * x_56
   + 52 x_5 * x_57 + 36 x_5 * x_58 + 54 x_5 * x_59 + 78 x_5 * x_64
   + 48 x_5 * x_65 + 66 x_5 * x_72 + 52 x_5 * x_75 + 70 x_5 * x_77
   + 76 x_5 * x_82 + 16 x_5 * x_83 + 84 x_5 * x_84 + 40 x_5 * x_85
   + 16 x_5 * x_92 + 86 x_5 * x_94 + 32 x_6 * x_7 + 48 x_6 * x_10
   + 80 x_6 * x_14 + 8 x_6 * x_16 + 92 x_6 * x_25 + 96 x_6 * x_30
   + 68 x_6 * x_33 + 88 x_6 * x_35 + 76 x_6 * x_37 + 24 x_6 * x_40
   + 36 x_6 * x_41 + 50 x_6 * x_50 + 46 x_6 * x_51 + 96 x_6 * x_55
   + 100 x_6 * x_61 + 32 x_6 * x_66 + 74 x_6 * x_67 + 58 x_6 * x_70
   + 48 x_6 * x_72 + 92 x_6 * x_73 + 80 x_6 * x_76 + 12 x_6 * x_79
   + 44 x_6 * x_86 + 58 x_6 * x_87 + 88 x_6 * x_95 + 52 x_6 * x_98
   + 14 x_7 * x_8 + 88 x_7 * x_17 + 58 x_7 * x_26 + 52 x_7 * x_27
   + 60 x_7 * x_28 + 42 x_7 * x_42 + 52 x_7 * x_46 + 98 x_7 * x_50
   + 80 x_7 * x_53 + 68 x_7 * x_59 + 30 x_7 * x_60 + 90 x_7 * x_61
   + 86 x_7 * x_71 + 70 x_7 * x_73 + 24 x_7 * x_79 + 70 x_7 * x_80
   + 20 x_7 * x_81 + 42 x_7 * x_85 + 14 x_7 * x_100 + 14 x_8 * x_9
   + 84 x_8 * x_12 + 44 x_8 * x_14 + 28 x_8 * x_19 + 98 x_8 * x_22
   + 92 x_8 * x_26 + 54 x_8 * x_27 + 52 x_8 * x_29 + 6 x_8 * x_39
   + 26 x_8 * x_52 + 26 x_8 * x_54 + 64 x_8 * x_58 + 92 x_8 * x_61
   + 62 x_8 * x_62 + 4 x_8 * x_65 + 16 x_8 * x_66 + 78 x_8 * x_67
   + 84 x_8 * x_69 + 58 x_8 * x_72 + 64 x_8 * x_74 + 12 x_8 * x_75
   + 44 x_8 * x_79 + 22 x_8 * x_81 + 94 x_8 * x_82 + 80 x_8 * x_87
   + 62 x_8 * x_88 + 52 x_8 * x_90 + 60 x_8 * x_92 + 4 x_8 * x_95
   + 82 x_9 * x_14 + 88 x_9 * x_16 + 80 x_9 * x_17 + 38 x_9 * x_18
   + 28 x_9 * x_24 + 76 x_9 * x_28 + 32 x_9 * x_41 + 62 x_9 * x_56
   + 52 x_9 * x_57 + 94 x_9 * x_74 + 82 x_9 * x_81 + 80 x_9 * x_90
   + 90 x_9 * x_92 + 38 x_9 * x_100 + 44 x_10 * x_13 + 10 x_10 * x_14
   + 24 x_10 * x_16 + 92 x_10 * x_21 + 86 x_10 * x_23 + 78 x_10 * x_25
   + 98 x_10 * x_26 + 40 x_10 * x_28 + 26 x_10 * x_30 + 18 x_10 * x_34
   + 98 x_10 * x_37 + 16 x_10 * x_42 + 32 x_10 * x_47 + 82 x_10 * x_48
   + 34 x_10 * x_49 + 96 x_10 * x_58 + 66 x_10 * x_59 + 12 x_10 * x_61
   + 22 x_10 * x_76 + 82 x_10 * x_81 + 32 x_10 * x_84 + 50 x_10 * x_85
   + 50 x_10 * x_99 + 26 x_10 * x_100 + 56 x_11 * x_13 + 38 x_11 * x_15
   + 42 x_11 * x_26 + 14 x_11 * x_33 + 24 x_11 * x_34 + 78 x_11 * x_37
   + 12 x_11 * x_43 + 8 x_11 * x_44 + 62 x_11 * x_48 + 18 x_11 * x_51
   + 34 x_11 * x_53 + 82 x_11 * x_59 + 32 x_11 * x_61 + 72 x_11 * x_64
   + 32 x_11 * x_65 + 46 x_11 * x_73 + 34 x_11 * x_74 + 30 x_11 * x_75
   + 56 x_11 * x_77 + 2 x_11 * x_81 + 14 x_11 * x_84 + 20 x_11 * x_86
   + 22 x_11 * x_88 + 46 x_11 * x_89 + 48 x_11 * x_90 + 60 x_11 * x_92
   + 4 x_11 * x_98 + 94 x_12 * x_13 + 88 x_12 * x_15 + 94 x_12 * x_16
   + 66 x_12 * x_18 + 26 x_12 * x_20 + 34 x_12 * x_22 + 98 x_12 * x_28
   + 36 x_12 * x_44 + 36 x_12 * x_46 + 2 x_12 * x_47 + 52 x_12 * x_48
   + 8 x_12 * x_52 + 34 x_12 * x_55 + 4 x_12 * x_60 + 68 x_12 * x_63
   + 82 x_12 * x_64 + 70 x_12 * x_70 + 42 x_12 * x_78 + 62 x_12 * x_81
   + 62 x_12 * x_82 + 64 x_12 * x_92 + 96 x_12 * x_94 + 88 x_12 * x_96
   + 58 x_13 * x_20 + 38 x_13 * x_24 + 40 x_13 * x_29 + 32 x_13 * x_31
   + 52 x_13 * x_33 + 94 x_13 * x_34 + 28 x_13 * x_40 + 18 x_13 * x_41
   + 48 x_13 * x_48 + 78 x_13 * x_60 + 96 x_13 * x_62 + 38 x_13 * x_67
   + 86 x_13 * x_73 + 18 x_13 * x_74 + 68 x_13 * x_82 + 4 x_13 * x_92
   + 76 x_13 * x_94 + 66 x_13 * x_98 + 6 x_14 * x_17 + 40 x_14 * x_19
   + 98 x_14 * x_20 + 94 x_14 * x_32 + 40 x_14 * x_36 + 76 x_14 * x_38
   + 16 x_14 * x_42 + 70 x_14 * x_43 + 14 x_14 * x_44 + 84 x_14 * x_54
   + 16 x_14 * x_56 + 58 x_14 * x_61 + 100 x_14 * x_65 + 52 x_14 * x_70
   + 48 x_14 * x_75 + 6 x_14 * x_76 + 94 x_14 * x_78 + 38 x_14 * x_79
   + 12 x_14 * x_81 + 50 x_14 * x_82 + 92 x_14 * x_83 + 10 x_14 * x_92
   + 24 x_14 * x_96 + 24 x_14 * x_100 + 52 x_15 * x_18 + 36 x_15 * x_19
   + 84 x_15 * x_20 + 32 x_15 * x_27 + 68 x_15 * x_28 + 62 x_15 * x_29
   + 68 x_15 * x_34 + 60 x_15 * x_44 + 22 x_15 * x_49 + 4 x_15 * x_52
   + 50 x_15 * x_66 + 42 x_15 * x_67 + 10 x_15 * x_68 + 62 x_15 * x_73
   + 90 x_15 * x_74 + 66 x_15 * x_80 + 52 x_15 * x_83 + 50 x_15 * x_85
   + 30 x_15 * x_87 + 84 x_15 * x_88 + 18 x_15 * x_89 + 68 x_15 * x_91
   + 88 x_15 * x_95 + 82 x_15 * x_99 + 42 x_16 * x_18 + 74 x_16 * x_19
   + 4 x_16 * x_25 + 42 x_16 * x_26 + 76 x_16 * x_27 + 38 x_16 * x_29
   + 50 x_16 * x_30 + 94 x_16 * x_39 + 52 x_16 * x_52 + 36 x_16 * x_55
   + 94 x_16 * x_58 + 12 x_16 * x_62 + 54 x_16 * x_65 + 68 x_16 * x_66
   + 10 x_16 * x_75 + 56 x_16 * x_77 + 70 x_16 * x_79 + 76 x_16 * x_87
   + 78 x_16 * x_99 + 12 x_17 * x_43 + 88 x_17 * x_49 + 94 x_17 * x_53
   + 40 x_17 * x_54 + 90 x_17 * x_58 + 96 x_17 * x_59 + 8 x_17 * x_71
   + 38 x_17 * x_79 + 8 x_17 * x_84 + 68 x_17 * x_85 + 32 x_17 * x_92
   + 8 x_17 * x_96 + 62 x_18 * x_20 + 100 x_18 * x_22 + 50 x_18 * x_24
   + 46 x_18 * x_32 + 50 x_18 * x_42 + 20 x_18 * x_49 + 12 x_18 * x_51
   + 14 x_18 * x_53 + 46 x_18 * x_56 + 36 x_18 * x_57 + 66 x_18 * x_58
   + 42 x_18 * x_59 + 12 x_18 * x_60 + 46 x_18 * x_62 + 58 x_18 * x_70
   + 96 x_18 * x_72 + 2 x_18 * x_73 + 90 x_18 * x_74 + 64 x_18 * x_80
   + 52 x_18 * x_92 + 56 x_18 * x_98 + 44 x_19 * x_23 + 56 x_19 * x_24
   + 90 x_19 * x_27 + 88 x_19 * x_28 + 60 x_19 * x_29 + 92 x_19 * x_35
   + 50 x_19 * x_39 + 50 x_19 * x_41 + 10 x_19 * x_46 + 82 x_19 * x_48
   + 94 x_19 * x_52 + 48 x_19 * x_55 + 68 x_19 * x_56 + 42 x_19 * x_58
   + 32 x_19 * x_62 + 8 x_19 * x_63 + 52 x_19 * x_66 + 8 x_19 * x_69
   + 88 x_19 * x_74 + 78 x_19 * x_75 + 82 x_19 * x_76 + 86 x_19 * x_77
   + 2 x_19 * x_86 + 86 x_19 * x_87 + 58 x_19 * x_91 + 22 x_19 * x_96
   + 46 x_19 * x_98 + 32 x_20 * x_24 + 8 x_20 * x_26 + 98 x_20 * x_31
   + 82 x_20 * x_32 + 96 x_20 * x_33 + 14 x_20 * x_35 + 64 x_20 * x_39
   + 36 x_20 * x_40 + 50 x_20 * x_41 + 42 x_20 * x_43 + 98 x_20 * x_50
   + 30 x_20 * x_58 + 74 x_20 * x_60 + 58 x_20 * x_65 + 10 x_20 * x_67
   + 70 x_20 * x_69 + 56 x_20 * x_72 + 6 x_20 * x_74 + 42 x_20 * x_79
   + 44 x_20 * x_80 + 46 x_20 * x_82 + 36 x_20 * x_83 + 50 x_20 * x_84
   + 96 x_20 * x_86 + 8 x_20 * x_88 + 34 x_20 * x_89 + 26 x_20 * x_94
   + 76 x_20 * x_98 + 14 x_21 * x_23 + 2 x_21 * x_28 + 16 x_21 * x_44
   + 84 x_21 * x_49 + 36 x_21 * x_51 + 32 x_21 * x_53 + 54 x_21 * x_55
   + 58 x_21 * x_56 + 40 x_21 * x_58 + 64 x_21 * x_60 + 60 x_21 * x_66
   + 80 x_21 * x_68 + 46 x_21 * x_83 + 22 x_21 * x_86 + 6 x_21 * x_87
   + 88 x_21 * x_88 + 10 x_21 * x_89 + 88 x_21 * x_93 + 14 x_21 * x_97
   + 54 x_21 * x_98 + 6 x_21 * x_99 + 64 x_22 * x_26 + 60 x_22 * x_28
   + 70 x_22 * x_32 + 46 x_22 * x_41 + 72 x_22 * x_46 + 100 x_22 * x_52
   + 32 x_22 * x_69 + 28 x_22 * x_71 + 32 x_22 * x_76 + 34 x_22 * x_79
   + 2 x_22 * x_87 + 8 x_22 * x_88 + 66 x_22 * x_89 + 40 x_23 * x_26
   + 48 x_23 * x_29 + 74 x_23 * x_30 + 90 x_23 * x_40 + 4 x_23 * x_45
   + 26 x_23 * x_49 + 74 x_23 * x_55 + 24 x_23 * x_67 + 38 x_23 * x_69
   + 38 x_23 * x_71 + 60 x_23 * x_73 + 52 x_23 * x_74 + 48 x_23 * x_79
   + 32 x_23 * x_83 + 48 x_23 * x_89 + 40 x_23 * x_91 + 14 x_23 * x_93
   + 32 x_23 * x_96 + 32 x_23 * x_98 + 8 x_24 * x_27 + 64 x_24 * x_29
   + 72 x_24 * x_31 + 92 x_24 * x_33 + 26 x_24 * x_45 + 8 x_24 * x_47
   + 36 x_24 * x_50 + 88 x_24 * x_51 + 76 x_24 * x_52 + 56 x_24 * x_55
   + 80 x_24 * x_61 + 66 x_24 * x_67 + 98 x_24 * x_68 + 8 x_24 * x_75
   + 90 x_24 * x_77 + 80 x_24 * x_79 + 98 x_24 * x_81 + 12 x_24 * x_83
   + 74 x_24 * x_89 + 64 x_24 * x_97 + 26 x_24 * x_100 + 84 x_25 * x_32
   + 22 x_25 * x_36 + 62 x_25 * x_41 + 6 x_25 * x_43 + 72 x_25 * x_46
   + 30 x_25 * x_47 + 38 x_25 * x_48 + 70 x_25 * x_49 + 86 x_25 * x_53
   + 26 x_25 * x_58 + 16 x_25 * x_69 + 56 x_25 * x_73 + 22 x_25 * x_80
   + 60 x_25 * x_81 + 22 x_25 * x_97 + 98 x_25 * x_100 + 66 x_26 * x_28
   + 52 x_26 * x_29 + 22 x_26 * x_31 + 74 x_26 * x_34 + 50 x_26 * x_38
   + 32 x_26 * x_44 + 82 x_26 * x_46 + 28 x_26 * x_47 + 46 x_26 * x_52
   + 58 x_26 * x_61 + 82 x_26 * x_63 + 96 x_26 * x_67 + 94 x_26 * x_68
   + 78 x_26 * x_72 + 84 x_26 * x_74 + 38 x_26 * x_76 + 2 x_26 * x_78
   + 46 x_26 * x_80 + 26 x_26 * x_84 + 16 x_26 * x_86 + 8 x_26 * x_90
   + 96 x_26 * x_91 + 74 x_26 * x_100 + 24 x_27 * x_28 + 54 x_27 * x_32
   + 56 x_27 * x_37 + 54 x_27 * x_47 + 90 x_27 * x_52 + 52 x_27 * x_56
   + 94 x_27 * x_65 + 60 x_27 * x_71 + 74 x_27 * x_73 + 32 x_27 * x_75
   + 62 x_27 * x_78 + 24 x_27 * x_81 + 2 x_27 * x_90 + 92 x_27 * x_96
   + 98 x_27 * x_97 + 6 x_27 * x_100 + 60 x_28 * x_30 + 16 x_28 * x_37
   + 42 x_28 * x_38 + 90 x_28 * x_39 + 92 x_28 * x_43 + 70 x_28 * x_56
   + 58 x_28 * x_57 + 8 x_28 * x_66 + 54 x_28 * x_70 + 98 x_28 * x_73
   + 24 x_28 * x_75 + 92 x_28 * x_80 + 62 x_28 * x_87 + 56 x_28 * x_94
   + 56 x_28 * x_98 + 54 x_29 * x_32 + 68 x_29 * x_36 + 64 x_29 * x_39
   + 82 x_29 * x_47 + 34 x_29 * x_53 + 38 x_29 * x_55 + 18 x_29 * x_61
   + 8 x_29 * x_66 + 8 x_29 * x_70 + 22 x_29 * x_75 + 16 x_29 * x_77
   + 92 x_29 * x_81 + 46 x_29 * x_91 + 6 x_29 * x_99 + 2 x_29 * x_100
   + 64 x_30 * x_41 + 74 x_30 * x_52 + 12 x_30 * x_54 + 14 x_30 * x_55
   + 40 x_30 * x_56 + 64 x_30 * x_59 + 14 x_30 * x_62 + 42 x_30 * x_63
   + 32 x_30 * x_66 + 8 x_30 * x_69 + 60 x_30 * x_76 + 32 x_30 * x_79
   + 96 x_30 * x_80 + 62 x_30 * x_83 + 82 x_30 * x_85 + 92 x_30 * x_86
   + 38 x_30 * x_88 + 36 x_30 * x_94 + 56 x_30 * x_96 + 98 x_30 * x_97
   + 8 x_30 * x_98 + 88 x_31 * x_32 + 74 x_31 * x_33 + 44 x_31 * x_42
   + 62 x_31 * x_46 + 38 x_31 * x_48 + 28 x_31 * x_52 + 92 x_31 * x_57
   + 22 x_31 * x_64 + 76 x_31 * x_65 + 30 x_31 * x_73 + 68 x_31 * x_76
   + 66 x_31 * x_84 + 46 x_31 * x_94 + 30 x_31 * x_99 + 66 x_31 * x_100
   + 96 x_32 * x_33 + 90 x_32 * x_35 + 58 x_32 * x_36 + 12 x_32 * x_50
   + 22 x_32 * x_51 + 8 x_32 * x_63 + 4 x_32 * x_65 + 88 x_32 * x_68
   + 32 x_32 * x_70 + 66 x_32 * x_72 + 94 x_32 * x_77 + 20 x_32 * x_78
   + 52 x_32 * x_79 + 14 x_32 * x_82 + 34 x_32 * x_84 + 6 x_32 * x_85
   + 96 x_32 * x_87 + 98 x_32 * x_89 + 68 x_32 * x_97 + 28 x_32 * x_98
   + 24 x_33 * x_36 + 92 x_33 * x_41 + 12 x_33 * x_43 + 26 x_33 * x_46
   + 40 x_33 * x_47 + 100 x_33 * x_51 + 26 x_33 * x_52 + 14 x_33 * x_53
   + 98 x_33 * x_55 + 22 x_33 * x_58 + 28 x_33 * x_70 + 50 x_33 * x_71
   + 64 x_33 * x_73 + 2 x_33 * x_75 + 78 x_33 * x_80 + 18 x_33 * x_83
   + 90 x_33 * x_89 + 92 x_33 * x_92 + 8 x_34 * x_41 + 86 x_34 * x_52
   + 14 x_34 * x_53 + 40 x_34 * x_54 + 88 x_34 * x_58 + 24 x_34 * x_65
   + 64 x_34 * x_73 + 92 x_34 * x_74 + 38 x_34 * x_78 + 32 x_34 * x_80
   + 40 x_34 * x_87 + 76 x_34 * x_91 + 56 x_34 * x_94 + 34 x_35 * x_43
   + 44 x_35 * x_52 + 66 x_35 * x_54 + 90 x_35 * x_55 + 92 x_35 * x_56
   + 28 x_35 * x_61 + 20 x_35 * x_62 + 34 x_35 * x_68 + 98 x_35 * x_70
   + 54 x_35 * x_72 + 30 x_35 * x_73 + 10 x_35 * x_75 + 62 x_35 * x_76
   + 62 x_35 * x_79 + 96 x_35 * x_85 + 62 x_35 * x_86 + 26 x_35 * x_94
   + 100 x_35 * x_95 + 24 x_36 * x_37 + 80 x_36 * x_40 + 28 x_36 * x_44
   + 58 x_36 * x_45 + 22 x_36 * x_54 + 60 x_36 * x_57 + 8 x_36 * x_61
   + 98 x_36 * x_64 + 98 x_36 * x_75 + 84 x_36 * x_79 + 14 x_36 * x_96
   + 14 x_37 * x_47 + 80 x_37 * x_51 + 18 x_37 * x_53 + 30 x_37 * x_54
   + 6 x_37 * x_59 + 32 x_37 * x_60 + 68 x_37 * x_67 + 62 x_37 * x_76
   + 98 x_37 * x_80 + 26 x_37 * x_81 + 28 x_37 * x_84 + 30 x_37 * x_88
   + 64 x_37 * x_92 + 92 x_37 * x_94 + 84 x_37 * x_97 + 48 x_37 * x_98
   + 46 x_38 * x_42 + 46 x_38 * x_44 + 96 x_38 * x_47 + 12 x_38 * x_52
   + 22 x_38 * x_57 + 70 x_38 * x_60 + 76 x_38 * x_61 + 16 x_38 * x_62
   + 94 x_38 * x_65 + 26 x_38 * x_67 + 40 x_38 * x_69 + 48 x_38 * x_79
   + 92 x_38 * x_83 + 82 x_38 * x_86 + 90 x_38 * x_90 + 78 x_38 * x_96
   + 52 x_39 * x_44 + 86 x_39 * x_51 + 82 x_39 * x_54 + 92 x_39 * x_56
   + 86 x_39 * x_60 + 86 x_39 * x_73 + 2 x_39 * x_74 + 24 x_39 * x_75
   + 82 x_39 * x_77 + 62 x_39 * x_79 + 68 x_39 * x_80 + 74 x_39 * x_81
   + 10 x_39 * x_88 + 78 x_39 * x_89 + 82 x_39 * x_91 + 26 x_39 * x_93
   + 32 x_39 * x_94 + 2 x_39 * x_96 + 34 x_39 * x_98 + 68 x_39 * x_100
   + 48 x_40 * x_43 + 26 x_40 * x_46 + 76 x_40 * x_50 + 62 x_40 * x_51
   + 50 x_40 * x_55 + 4 x_40 * x_68 + 52 x_40 * x_69 + 2 x_40 * x_71
   + 28 x_40 * x_74 + 30 x_40 * x_79 + 88 x_40 * x_82 + 4 x_40 * x_94
   + 100 x_41 * x_43 + 2 x_41 * x_45 + 24 x_41 * x_49 + 22 x_41 * x_51
   + 54 x_41 * x_52 + 86 x_41 * x_56 + 58 x_41 * x_57 + 50 x_41 * x_59
   + 82 x_41 * x_75 + 16 x_41 * x_79 + 26 x_41 * x_83 + 20 x_41 * x_84
   + 74 x_41 * x_88 + 52 x_41 * x_92 + 8 x_41 * x_93 + 62 x_42 * x_55
   + 64 x_42 * x_59 + 22 x_42 * x_62 + 38 x_42 * x_65 + 44 x_42 * x_69
   + 18 x_42 * x_72 + 22 x_42 * x_74 + 28 x_42 * x_79 + 40 x_42 * x_86
   + 82 x_42 * x_88 + 64 x_42 * x_90 + 34 x_42 * x_93 + 42 x_42 * x_99
   + 28 x_43 * x_53 + 26 x_43 * x_59 + 94 x_43 * x_61 + 44 x_43 * x_70
   + 26 x_43 * x_72 + 52 x_43 * x_73 + 44 x_43 * x_74 + 48 x_43 * x_79
   + 56 x_43 * x_81 + 10 x_43 * x_95 + 82 x_43 * x_97 + 54 x_43 * x_100
   + 12 x_44 * x_45 + 52 x_44 * x_46 + 100 x_44 * x_48 + 34 x_44 * x_52
   + 44 x_44 * x_53 + 58 x_44 * x_54 + 82 x_44 * x_58 + 96 x_44 * x_60
   + 54 x_44 * x_61 + 32 x_44 * x_70 + 22 x_44 * x_74 + 94 x_44 * x_86
   + 42 x_44 * x_94 + 52 x_45 * x_47 + 40 x_45 * x_50 + 32 x_45 * x_54
   + 58 x_45 * x_56 + 6 x_45 * x_64 + 64 x_45 * x_72 + 24 x_45 * x_89
   + 62 x_45 * x_90 + 54 x_45 * x_93 + 20 x_46 * x_48 + 72 x_46 * x_51
   + 78 x_46 * x_55 + 6 x_46 * x_57 + 78 x_46 * x_59 + 52 x_46 * x_60
   + 50 x_46 * x_63 + 10 x_46 * x_69 + 12 x_46 * x_76 + 70 x_46 * x_77
   + 2 x_46 * x_78 + 52 x_46 * x_80 + 66 x_46 * x_83 + 14 x_46 * x_85
   + 70 x_46 * x_87 + 44 x_46 * x_89 + 38 x_46 * x_91 + 78 x_46 * x_93
   + 28 x_46 * x_96 + 50 x_46 * x_100 + 2 x_47 * x_50 + 98 x_47 * x_61
   + 86 x_47 * x_65 + 82 x_47 * x_71 + 88 x_47 * x_73 + 96 x_47 * x_76
   + 2 x_47 * x_77 + 78 x_47 * x_86 + 90 x_47 * x_87 + 100 x_47 * x_89
   + 96 x_47 * x_94 + 66 x_48 * x_49 + 62 x_48 * x_51 + 14 x_48 * x_58
   + 62 x_48 * x_59 + 96 x_48 * x_68 + 26 x_48 * x_72 + 94 x_48 * x_79
   + 84 x_48 * x_91 + 86 x_48 * x_95 + 64 x_48 * x_96 + 38 x_49 * x_56
   + 40 x_49 * x_60 + 80 x_49 * x_68 + 86 x_49 * x_69 + 66 x_49 * x_71
   + 98 x_49 * x_75 + 92 x_49 * x_76 + 30 x_49 * x_85 + 98 x_49 * x_88
   + 22 x_49 * x_89 + 26 x_49 * x_94 + 76 x_49 * x_95 + 40 x_50 * x_55
   + 88 x_50 * x_58 + 34 x_50 * x_63 + 94 x_50 * x_64 + 86 x_50 * x_67
   + 20 x_50 * x_83 + 6 x_50 * x_84 + 100 x_50 * x_86 + 18 x_50 * x_88
   + 64 x_50 * x_89 + 96 x_50 * x_91 + 86 x_50 * x_97 + 6 x_50 * x_98
   + 14 x_50 * x_100 + 44 x_51 * x_57 + 22 x_51 * x_59 + 92 x_51 * x_63
   + 16 x_51 * x_69 + 60 x_51 * x_74 + 74 x_51 * x_87 + 78 x_51 * x_88
   + 94 x_51 * x_90 + 10 x_51 * x_98 + 62 x_52 * x_60 + 24 x_52 * x_61
   + 70 x_52 * x_66 + 68 x_52 * x_74 + 68 x_52 * x_77 + 38 x_52 * x_81
   + 10 x_52 * x_83 + 52 x_52 * x_87 + 72 x_52 * x_88 + 42 x_52 * x_89
   + 50 x_52 * x_96 + 4 x_53 * x_60 + 94 x_53 * x_61 + 76 x_53 * x_62
   + 54 x_53 * x_64 + 4 x_53 * x_70 + 10 x_53 * x_75 + 4 x_53 * x_79
   + 70 x_53 * x_80 + 66 x_53 * x_81 + 6 x_53 * x_85 + 62 x_53 * x_93
   + 14 x_53 * x_94 + 38 x_53 * x_95 + 12 x_53 * x_97 + 14 x_54 * x_58
   + 24 x_54 * x_69 + 92 x_54 * x_77 + 32 x_54 * x_86 + 54 x_54 * x_90
   + 88 x_54 * x_93 + 76 x_54 * x_95 + 52 x_55 * x_58 + 74 x_55 * x_61
   + 4 x_55 * x_65 + 2 x_55 * x_67 + 84 x_55 * x_73 + 68 x_55 * x_74
   + 98 x_55 * x_75 + 94 x_55 * x_81 + 50 x_55 * x_82 + 60 x_55 * x_83
   + 78 x_55 * x_91 + 92 x_55 * x_93 + 30 x_56 * x_58 + 62 x_56 * x_59
   + 10 x_56 * x_61 + 56 x_56 * x_69 + 70 x_56 * x_70 + 24 x_56 * x_71
   + 54 x_56 * x_73 + 26 x_56 * x_75 + 12 x_56 * x_76 + 76 x_56 * x_78
   + 56 x_56 * x_83 + 46 x_56 * x_89 + 2 x_56 * x_90 + 10 x_56 * x_93
   + 14 x_56 * x_94 + 36 x_56 * x_96 + 18 x_56 * x_98 + 12 x_57 * x_58
   + 34 x_57 * x_62 + 100 x_57 * x_64 + 92 x_57 * x_65 + 48 x_57 * x_66
   + 2 x_57 * x_76 + 48 x_57 * x_79 + 76 x_57 * x_83 + 14 x_57 * x_96
   + 84 x_57 * x_98 + 100 x_58 * x_61 + 72 x_58 * x_62 + 16 x_58 * x_64
   + 44 x_58 * x_68 + 64 x_58 * x_72 + 66 x_58 * x_74 + 94 x_58 * x_78
   + 38 x_58 * x_79 + 20 x_58 * x_84 + 34 x_58 * x_87 + 34 x_58 * x_96
   + 30 x_58 * x_100 + 38 x_59 * x_63 + 54 x_59 * x_67 + 66 x_59 * x_71
   + 10 x_59 * x_79 + 78 x_59 * x_80 + 42 x_59 * x_81 + 30 x_59 * x_83
   + 28 x_59 * x_93 + 86 x_59 * x_94 + 94 x_59 * x_95 + 52 x_59 * x_97
   + 8 x_59 * x_98 + 48 x_60 * x_65 + 60 x_60 * x_67 + 80 x_60 * x_69
   + 80 x_60 * x_71 + 92 x_60 * x_72 + 92 x_60 * x_78 + 94 x_60 * x_83
   + 66 x_60 * x_87 + 70 x_60 * x_88 + 58 x_60 * x_89 + 96 x_60 * x_96
   + 44 x_60 * x_97 + 12 x_60 * x_100 + 26 x_61 * x_62 + 20 x_61 * x_64
   + 36 x_61 * x_80 + 98 x_61 * x_89 + 8 x_61 * x_96 + 70 x_61 * x_99
   + 100 x_62 * x_64 + 2 x_62 * x_71 + 62 x_62 * x_81 + 94 x_62 * x_82
   + 8 x_62 * x_83 + 96 x_62 * x_84 + 20 x_62 * x_88 + 6 x_62 * x_89
   + 10 x_62 * x_93 + 86 x_62 * x_96 + 70 x_63 * x_72 + 50 x_63 * x_73
   + 78 x_63 * x_77 + 26 x_63 * x_78 + 62 x_63 * x_81 + 36 x_63 * x_85
   + 90 x_63 * x_90 + 94 x_63 * x_91 + 22 x_63 * x_92 + 4 x_64 * x_67
   + 74 x_64 * x_80 + 50 x_64 * x_81 + 16 x_64 * x_82 + 64 x_64 * x_84
   + 68 x_64 * x_88 + 2 x_64 * x_100 + 52 x_65 * x_67 + 56 x_65 * x_70
   + 28 x_65 * x_75 + 94 x_65 * x_76 + 54 x_65 * x_78 + 82 x_65 * x_81
   + 2 x_65 * x_82 + 84 x_65 * x_85 + 82 x_65 * x_86 + 12 x_66 * x_70
   + 94 x_66 * x_74 + 6 x_66 * x_75 + 38 x_66 * x_83 + 34 x_66 * x_86
   + 80 x_66 * x_93 + 22 x_66 * x_94 + 4 x_66 * x_100 + 18 x_67 * x_71
   + 62 x_67 * x_75 + 96 x_67 * x_76 + 12 x_67 * x_77 + 20 x_67 * x_78
   + 30 x_67 * x_81 + 16 x_67 * x_82 + 58 x_67 * x_83 + 50 x_67 * x_84
   + 94 x_67 * x_86 + 90 x_67 * x_90 + 36 x_67 * x_96 + 26 x_67 * x_98
   + 42 x_67 * x_99 + 68 x_68 * x_70 + 18 x_68 * x_71 + 86 x_68 * x_76
   + 26 x_68 * x_80 + 16 x_68 * x_82 + 58 x_68 * x_86 + 22 x_68 * x_87
   + 52 x_68 * x_93 + 94 x_68 * x_94 + 68 x_69 * x_71 + 54 x_69 * x_72
   + 62 x_69 * x_73 + 64 x_69 * x_74 + 88 x_69 * x_75 + 24 x_69 * x_77
   + 18 x_69 * x_79 + 30 x_69 * x_81 + 56 x_69 * x_82 + 28 x_69 * x_83
   + 78 x_69 * x_84 + 10 x_69 * x_85 + 26 x_69 * x_89 + 14 x_69 * x_90
   + 98 x_69 * x_92 + 58 x_69 * x_93 + 24 x_69 * x_94 + 54 x_69 * x_95
   + 32 x_69 * x_96 + 50 x_69 * x_100 + 20 x_70 * x_73 + 56 x_70 * x_77
   + 14 x_70 * x_80 + 6 x_70 * x_81 + 26 x_70 * x_83 + 36 x_70 * x_84
   + 72 x_70 * x_85 + 8 x_70 * x_88 + 20 x_70 * x_90 + 18 x_70 * x_98
   + 56 x_70 * x_99 + 50 x_71 * x_77 + 72 x_71 * x_90 + 50 x_71 * x_95
   + 50 x_71 * x_96 + 42 x_71 * x_98 + 60 x_71 * x_100 + 12 x_72 * x_75
   + 40 x_72 * x_89 + 76 x_72 * x_97 + 56 x_73 * x_76 + 36 x_73 * x_93
   + 64 x_73 * x_99 + 92 x_74 * x_81 + 40 x_74 * x_85 + 76 x_74 * x_87
   + 30 x_74 * x_89 + 76 x_74 * x_95 + 62 x_74 * x_97 + 76 x_75 * x_76
   + 58 x_75 * x_78 + 22 x_75 * x_81 + 92 x_75 * x_87 + 66 x_75 * x_88
   + 74 x_75 * x_93 + 68 x_75 * x_96 + 52 x_76 * x_77 + 64 x_76 * x_78
   + 54 x_76 * x_85 + 32 x_76 * x_86 + 94 x_76 * x_95 + 80 x_77 * x_82
   + 14 x_77 * x_84 + 98 x_77 * x_87 + 76 x_77 * x_92 + 48 x_77 * x_97
   + 6 x_78 * x_80 + 28 x_78 * x_91 + 50 x_78 * x_93 + 94 x_78 * x_95
   + 20 x_78 * x_96 + 12 x_78 * x_97 + 10 x_78 * x_100 + 24 x_79 * x_80
   + 64 x_79 * x_81 + 90 x_79 * x_83 + 52 x_79 * x_85 + 50 x_79 * x_88
   + 52 x_79 * x_94 + 52 x_80 * x_82 + 48 x_80 * x_86 + 62 x_80 * x_88
   + 20 x_80 * x_94 + 16 x_81 * x_88 + 44 x_81 * x_90 + 76 x_81 * x_98
   + 42 x_82 * x_85 + 58 x_82 * x_86 + 58 x_82 * x_90 + 60 x_82 * x_92
   + 68 x_82 * x_96 + 8 x_82 * x_97 + 74 x_83 * x_86 + 48 x_83 * x_98
   + 2 x_83 * x_99 + 88 x_84 * x_85 + 100 x_84 * x_89 + 36 x_84 * x_93
   + 56 x_84 * x_94 + 26 x_85 * x_87 + 66 x_85 * x_88 + 20 x_85 * x_97
   + 52 x_85 * x_100 + 40 x_86 * x_88 + 4 x_86 * x_89 + 30 x_86 * x_90
   + 34 x_86 * x_96 + 36 x_87 * x_88 + 34 x_87 * x_89 + 64 x_87 * x_99
   + 74 x_88 * x_90 + 96 x_88 * x_94 + 94 x_89 * x_90 + 22 x_89 * x_91
   + 94 x_89 * x_92 + 74 x_89 * x_96 + 68 x_89 * x_97 + 88 x_89 * x_100
   + 70 x_91 * x_97 + 58 x_92 * x_96 + 22 x_92 * x_97 + 80 x_92 * x_98
   + 94 x_93 * x_99 + 70 x_93 * x_100 + 90 x_94 * x_95 + 50 x_94 * x_97
   + 68 x_94 * x_100 + 14 x_96 * x_100 + 10 x_97 * x_100 + 92 x_98 * x_99
   + 86 x_98 * x_100 ] / 2 
Subject To
 R0: 20 x_1 + 22 x_2 + 23 x_3 + 16 x_4 + 24 x_5 + 18 x_6 + 7 x_7 + 5 x_8
   + 12 x_9 + 20 x_10 + 17 x_11 + 21 x_12 + 12 x_13 + 22 x_14 + 20 x_15
   + 8 x_16 + 14 x_17 + 18 x_18 + 9 x_19 + 14 x_20 + 23 x_21 + 17 x_22
   + 5 x_23 + 17 x_24 + 16 x_25 + 6 x_26 + 25 x_27 + 17 x_28 + 10 x_29
   + 25 x_30 + 3 x_31 + 9 x_32 + 11 x_33 + 6 x_34 + 9 x_35 + 18 x_36
   + 2 x_37 + 12 x_38 + 12 x_39 + 23 x_40 + 23 x_41 + 23 x_42 + 14 x_43
   + 4 x_44 + 9 x_45 + 11 x_46 + 10 x_47 + 19 x_48 + 9 x_49 + 19 x_50
   + 9 x_51 + 14 x_52 + 5 x_53 + 14 x_54 + 22 x_55 + 6 x_56 + 7 x_57 + x_58
   + 14 x_59 + 13 x_60 + 17 x_61 + 11 x_62 + 21 x_63 + 9 x_64 + 20 x_65
   + 4 x_66 + 25 x_67 + 15 x_68 + 19 x_69 + 10 x_70 + 24 x_71 + 15 x_72
   + 5 x_73 + 7 x_74 + 13 x_75 + 24 x_76 + 8 x_77 + 20 x_78 + 22 x_79
   + 22 x_80 + 20 x_81 + 14 x_82 + 11 x_83 + 10 x_84 + 13 x_85 + 15 x_86
   + 11 x_87 + 22 x_88 + 17 x_89 + 15 x_90 + 18 x_91 + 16 x_92 + 20 x_93
   + 4 x_94 + 16 x_95 + 22 x_96 + 2 x_97 + 25 x_98 + 18 x_99 + 2 x_100
   <= 149
Bounds
Binaries
 x_1 x_2 x_3 x_4 x_5 x_6 x_7 x_8 x_9 x_10 x_11 x_12 x_13 x_14 x_15 x_16
 x_17 x_18 x_19 x_20 x_21 x_22 x_23 x_24 x_25 x_26 x_27 x_28 x_29 x_30 x_31
 x_32 x_33 x_34 x_35 x_36 x_37 x_38 x_39 x_40 x_41 x_42 x_43 x_44 x_45 x_46
 x_47 x_48 x_49 x_50 x_51 x_52 x_53 x_54 x_55 x_56 x_57 x_58 x_59 x_60 x_61
 x_62 x_63 x_64 x_65 x_66 x_67 x_68 x_69 x_70 x_71 x_72 x_73 x_74 x_75 x_76
 x_77 x_78 x_79 x_80 x_81 x_82 x_83 x_84 x_85 x_86 x_87 x_88 x_89 x_90 x_91
 x_92 x_93 x_94 x_95 x_96 x_97 x_98 x_99 x_100
End
